8642
33, 43, 4, 6, 5, 15, 24, 38, 40, 37, 39, 36, 34, 35, 49, 1, 22, 31, 18, 32, 45, 19, 10, 9, 8, 41, 3, 17, 7, 2, 42, 21, 23, 30, 20, 29, 50, 16, 44, 46, 48, 25, 28, 27, 26, 47, 14, 52, 13, 11, 12, 51
